(declare-fun var0 () String)
(declare-fun var1 () String)
(declare-fun var2 () String)
(declare-fun var3 () String)
(assert (= (Concat "<@b" (Concat var0 (Concat var1 (Concat var2 var3)))) (Concat (Concat var0 (Concat var1 (Concat var2 var3))) "6n&")))
(check-sat)